CMD:
./solvers/bin/cadical --plain --no-reduce -t 1600 ./data/cnfs//picorv32-check-p09/picorv32-check-p09.25.cnf

c --- [ banner ] -------------------------------------------------------------
c 
c CaDiCaL SAT Solver
c Copyright (c) 2016-2024
c A. Biere, M. Fleury, N. Froleyks, K. Fazekas, F. Pollitt, T. Faller
c JKU Linz, University of Freiburg, TU Wien
c 
c Version 2.1.3 5296d3d2a9bf48c154ab2acb5e44625776d821bf
c g++ (Gentoo 12.3.1_p20230526 p2) 12.3.1 20230526 -Wall -Wextra -O3 -DNDEBUG
c Sat Aug 9 07:26:21 PDT 2025 Linux cedar2.int.cedar.computecanada.ca 5.14.0-362.24.2.el9_3.x86_64 x86_64
c 
c --- [ limit ] --------------------------------------------------------------
c 
c setting time limit to 1600 seconds real time (due to '-t 1600')
c 
c --- [ parsing input ] ------------------------------------------------------
c 
c reading DIMACS file from './data/cnfs//picorv32-check-p09/picorv32-check-p09.25.cnf'
c opening file to read './data/cnfs//picorv32-check-p09/picorv32-check-p09.25.cnf'
c found 'p cnf 500221 1472242' header
c parsed 1472242 clauses in 0.24 seconds process time
c 
c --- [ options ] ------------------------------------------------------------
c 
c   --compact=false                (different from default 'true')
c   --decompose=false              (different from default 'true')
c   --deduplicate=false            (different from default 'true')
c   --elim=false                   (different from default 'true')
c   --probe=false                  (different from default 'true')
c   --reduce=false                 (different from default 'true')
c   --subsume=false                (different from default 'true')
c   --ternary=false                (different from default 'true')
c   --transred=false               (different from default 'true')
c   --vivify=false                 (different from default 'true')
c 
c --- [ solving ] ------------------------------------------------------------
c 
c time measured in process time since initialization
c 
c  seconds   reductions  redundant   irredundant
c          MB    restarts       trail        variables
c           level   conflicts       glue           remaining
c 
c *  0.24 229  0 0   0    0    0  0% 0 1436175 482436 96%
c {  0.34 235  0 0   0    0    0  0% 0 1436175 482436 96%
c i  0.39 237 59 0   0   18   17 21% 2 1436175 482406 96%
c i  0.40 237 54 0   0   29   26 20% 2 1436175 482362 96%
c i  0.43 237 72 0  10   98   89 14% 3 1436175 482311 96%
c i  0.43 237 68 0  10  109   96 14% 3 1436175 482310 96%
c i  0.44 237 58 0  10  150  132 13% 3 1436175 482309 96%
c i  0.48 237 47 0  24  252  227 12% 3 1436175 476444 95%
c i  0.49 237 48 0  25  276  249 12% 3 1436175 476443 95%
c i  0.52 238 49 0  28  530  476 12% 3 1436175 476442 95%
c i  0.53 238 46 0  31  597  534 12% 3 1436175 476441 95%
c i  0.55 238 44 0  45  651  583 12% 3 1436175 476440 95%
c i  0.57 238 41 0  49  744  663 12% 3 1436175 476436 95%
c i  0.59 238 40 0  52  864  774 12% 3 1436175 476435 95%
c i  0.60 238 39 0  52  892  799 12% 3 1436175 476418 95%
c i  0.62 238 38 0  64  955  858 12% 3 1436175 476417 95%
c i  0.62 238 37 0  67  982  880 12% 3 1436175 476344 95%
c i  0.62 238 37 0  68  983  880 12% 3 1436175 476311 95%
c }  0.64 238 37 0  73 1000  897 12% 3 1436175 476311 95%
c [  0.64 238  0 0  73 1000  897  0% 0 1436175 476311 95%
c 
c  seconds     reductions  redundant   irredundant
c          MB      restarts       trail        variables
c            level    conflicts       glue           remaining
c 
c O  0.69 238 2468 0  73 1002  899 29% 2 1436175 476311 95%
c i  0.84 238 2077 0  73 1110 1000 27% 4 1436175 476305 95%
c i  0.85 238 3394 0  73 1163 1044 38% 4 1436175 476282 95%
c i  0.85 238 3564 0  73 1175 1051 40% 4 1436175 476269 95%
c i  0.89 238 3378 0  73 1240 1105 40% 4 1436175 476231 95%
c i  0.90 238 2544 0  73 1319 1175 33% 4 1436175 476219 95%
c i  0.94 238 1734 0  73 1468 1309 25% 4 1436175 476218 95%
c i  1.00 238 1292 0  73 1636 1456 21% 4 1436175 476217 95%
c i  1.14 238 811 0  73 2010 1740 17% 5 1436175 476216 95%
c i  1.20 238 679 0  74 2205 1903 16% 5 1436175 476205 95%
c i  1.20 238 671 0  74 2219 1910 16% 5 1436175 476204 95%
c i  1.42 238 469 0  74 2757 2334 14% 5 1436175 475929 95%
c i  1.45 238 428 0  74 2926 2452 14% 5 1436175 474050 95%
c i  1.47 238 419 0  74 2966 2480 14% 5 1436175 473925 95%
c ]  1.48 238 411 0  74 3002 2500 14% 5 1436175 471971 94%
c 0  1.48 238 411 0  74 3002 2500 14% 5 1436175 471971 94%
c 
c --- [ result ] -------------------------------------------------------------
c 
s UNSATISFIABLE
c 
c --- [ run-time profiling ] -------------------------------------------------
c 
c process time taken by individual solving procedures
c (percentage relative to process time for solving)
c 
c         1.24   99.99% search
c         0.85   68.35% stable
c         0.29   23.53% unstable
c         0.24   19.67% parse
c         0.10    8.10% lucky
c         0.00    0.00% simplify
c   =================================
c         1.24   83.53% solve
c 
c last line shows process time for solving
c (percentage relative to total process time)
c 
c --- [ statistics ] ---------------------------------------------------------
c 
c chronological:              1245        41.47 %  of conflicts
c conflicts:                  3002      2423.34    per second
c decisions:                 23277     18790.17    per second
c fixed:                     28052         5.61 %  of all variables
c learned:                    2878        95.87 %  per conflict
c learned_lits:              43924       100.00 %  learned literals
c minimized:                     0         0.00 %  learned literals
c shrunken:                  12580        28.64 %  learned literals
c minishrunken:               5953        13.55 %  learned literals
c otfs:                         58         1.93 %  of conflict
c propagations:           18794877        15.17 M  per second
c rephased:                      1      3002.00    interval
c restarts:                     74        40.57    interval
c stabilizing:                   1        66.69 %  of conflicts
c subsumed:                    348         0.02 %  of all clauses
c strengthened:                 58         0.00 %  of all clauses
c 
c seconds are measured in process time for solving
c 
c --- [ resources ] ----------------------------------------------------------
c 
c total process time since initialization:         1.48    seconds
c total real time since initialization:            1.49    seconds
c maximum resident set size of process:          236.75    MB
c 
c --- [ shutting down ] ------------------------------------------------------
c 
c exit 20
